O2 U1                                   
   1.00000000000000     
     5.4679999351999999    0.0000000000000000    0.0000000000000000
     0.0000000000000000    5.4679999351999999    0.0000000000000000
     0.0000000000000000    0.0000000000000000    5.4679999351999999
   U    O 
     4     8
Direct
  0.0000000000000000  0.0000000000000000  0.0000000000000000
  0.0000000000000000  0.5000000000000000  0.5000000000000000
  0.5000000000000000  0.0000000000000000  0.5000000000000000
  0.5000000000000000  0.5000000000000000  0.0000000000000000
  0.2500000000000000  0.2500000000000000  0.2500000000000000
  0.7500000000000000  0.7500000000000000  0.7500000000000000
  0.7500000000000000  0.7500000000000000  0.2500000000000000
  0.2500000000000000  0.2500000000000000  0.7500000000000000
  0.7500000000000000  0.2500000000000000  0.7500000000000000
  0.2500000000000000  0.7500000000000000  0.2500000000000000
  0.2500000000000000  0.7500000000000000  0.7500000000000000
  0.7500000000000000  0.2500000000000000  0.2500000000000000
 
  0.00000000E+00  0.00000000E+00  0.00000000E+00
  0.00000000E+00  0.00000000E+00  0.00000000E+00
  0.00000000E+00  0.00000000E+00  0.00000000E+00
  0.00000000E+00  0.00000000E+00  0.00000000E+00
  0.00000000E+00  0.00000000E+00  0.00000000E+00
  0.00000000E+00  0.00000000E+00  0.00000000E+00
  0.00000000E+00  0.00000000E+00  0.00000000E+00
  0.00000000E+00  0.00000000E+00  0.00000000E+00
  0.00000000E+00  0.00000000E+00  0.00000000E+00
  0.00000000E+00  0.00000000E+00  0.00000000E+00
  0.00000000E+00  0.00000000E+00  0.00000000E+00
  0.00000000E+00  0.00000000E+00  0.00000000E+00
