SYSTEM=LIO
Start parameters for this run

PREC = accurate
ISTART = 0
ICHARG = 2

#energy cutoff and convergence parameters
ENCUT = 420
EDIFF = 1e-5
EDIFFG = -3e-5

#relaxation parameters
NSW = 0
IBRION = 2
ISIF = 3

# smearing for insulator
ISMEAR = -5
SIGMA = 0.01

# orbital moment and print magnetic moments
LORBMOM = .TRUE.
LORBIT = 11

# hubbard U
LDAU = .TRUE.
LDAUTYPE = 2
LDAUJ = 0 0
LDAUL = 2 -1
LDAUU = 6 0

# spin polarized
ISPIN = 2
LMAXMIX = 6

# noncollinear tags
LNONCOLLINEAR = .TRUE.
SAXIS = 0 0 1
ISYM = 0
MAGMOM = 0 0 2 6*0
LSORBIT = .TRUE.

LASPH = .TRUE.

NPAR = 2
