U1 O2                                   
   1.00000000000000     
    -2.7340000000000000    0.0000000000000000    2.7340000000000000
     0.0000000000000000    2.7340000000000000    2.7340000000000000
    -2.7340000000000000    2.7340000000000000    0.0000000000000000
   U    O 
     1     2
Direct
  0.0000000000000000  0.0000000000000000  0.0000000000000000
  0.7500000000000000  0.7500000000000000  0.7500000000000000
  0.2500000000000000  0.2500000000000000  0.2500000000000000
 
  0.00000000E+00  0.00000000E+00  0.00000000E+00
  0.00000000E+00  0.00000000E+00  0.00000000E+00
  0.00000000E+00  0.00000000E+00  0.00000000E+00
