New structure
1.0
       11.0000000000         0.0000000000         0.0000000000
        0.0000000000        11.0000000000         0.0000000000
        0.0000000000         0.0000000000        11.0000000000
   Fe
    5
Direct
     0.500000000         0.500000000         0.672949016
     0.500000000         0.500000000         0.327051014
     0.561146379         0.605909109         0.500000000
     0.561146379         0.394090921         0.500000000
     0.377705991         0.500000000         0.500000000
