New structure                           
   1.00000000000000     
    11.0000000000000000    0.0000000000000000    0.0000000000000000
     0.0000000000000000   11.0000000000000000    0.0000000000000000
     0.0000000000000000    0.0000000000000000   11.0000000000000000
   Fe
     5
Direct
  0.4934371897216678  0.5104364348847170  0.6674322608674004
  0.4934468773833771  0.5104285984584038  0.3325626090807106
  0.5842988617172722  0.6023747812695461  0.4999935144854675
  0.5597862616177594  0.3978182166992710  0.5000003702928808
  0.3690295585599159  0.4789419986880645  0.5000112752735362
 
  0.00000000E+00  0.00000000E+00  0.00000000E+00
  0.00000000E+00  0.00000000E+00  0.00000000E+00
  0.00000000E+00  0.00000000E+00  0.00000000E+00
  0.00000000E+00  0.00000000E+00  0.00000000E+00
  0.00000000E+00  0.00000000E+00  0.00000000E+00
