U1 O2
1.0
-2.734000 0.000000 2.734000
0.000000 2.734000 2.734000
-2.734000 2.734000 0.000000
U O
1 2
direct
0.000000 0.000000 0.000000 U
0.750000 0.750000 0.750000 O
0.250000 0.250000 0.250000 O
