New structure                           
   1.00000000000000     
    11.0000000000000000    0.0000000000000000    0.0000000000000000
     0.0000000000000000   11.0000000000000000    0.0000000000000000
     0.0000000000000000    0.0000000000000000   11.0000000000000000
   Fe
     1
Direct
	0.5 0.5 0.5
