New structure                           
   1.00000000000000     
    11.0000000000000000    0.0000000000000000    0.0000000000000000
     0.0000000000000000   11.0000000000000000    0.0000000000000000
     0.0000000000000000    0.0000000000000000   11.0000000000000000
   Fe
     5
Direct
  0.4929184130740691  0.5124763894480494  0.6672388865870280
  0.4929142173138916  0.5124658198498467  0.3327833816807114
  0.5819010364980585  0.6011800448929848  0.4999899471467144
  0.5605997905384870  0.3948890571052894  0.4999966061658089
  0.3716652915754862  0.4789887187038323  0.4999912084197322
 
  0.00000000E+00  0.00000000E+00  0.00000000E+00
  0.00000000E+00  0.00000000E+00  0.00000000E+00
  0.00000000E+00  0.00000000E+00  0.00000000E+00
  0.00000000E+00  0.00000000E+00  0.00000000E+00
  0.00000000E+00  0.00000000E+00  0.00000000E+00
