New structure                           
   1.00000000000000     
    11.0000000000000000    0.0000000000000000    0.0000000000000000
     0.0000000000000000   11.0000000000000000    0.0000000000000000
     0.0000000000000000    0.0000000000000000   11.0000000000000000
   Fe
     5
Direct
  0.4934371897216697  0.5104364348847140  0.6674322608674006
  0.4934468773833777  0.5104285984584063  0.3325626090807103
  0.5842988617172732  0.6023747812695478  0.4999935144854680
  0.5597862616177625  0.3978182166992715  0.5000003702928802
  0.3690295585599164  0.4789419986880628  0.5000112752735359
 
  0.00000000E+00  0.00000000E+00  0.00000000E+00
  0.00000000E+00  0.00000000E+00  0.00000000E+00
  0.00000000E+00  0.00000000E+00  0.00000000E+00
  0.00000000E+00  0.00000000E+00  0.00000000E+00
  0.00000000E+00  0.00000000E+00  0.00000000E+00
