O2 U1
1.0
        5.4679999352         0.0000000000         0.0000000000
        0.0000000000         5.4679999352         0.0000000000
        0.0000000000         0.0000000000         5.4679999352
    U    O
    4    8
Direct
     0.000000000         0.000000000         0.000000000
     0.000000000         0.500000000         0.500000000
     0.500000000         0.000000000         0.500000000
     0.500000000         0.500000000         0.000000000
     0.250000000         0.250000000         0.250000000
     0.750000000         0.750000000         0.750000000
     0.750000000         0.750000000         0.250000000
     0.250000000         0.250000000         0.750000000
     0.750000000         0.250000000         0.750000000
     0.250000000         0.750000000         0.250000000
     0.250000000         0.750000000         0.750000000
     0.750000000         0.250000000         0.250000000
