New structure                           
   1.00000000000000     
    11.0000000000000000    0.0000000000000000    0.0000000000000000
     0.0000000000000000   11.0000000000000000    0.0000000000000000
     0.0000000000000000    0.0000000000000000   11.0000000000000000
   Fe
     5
Direct
  0.5000000000000000  0.5000000000000000  0.6729490159999969
  0.5000000000000000  0.5000000000000000  0.3270510139999985
  0.5611463790000002  0.6059091090000024  0.5000000000000000
  0.5611463790000002  0.3940909210000001  0.5000000000000000
  0.3777059909999991  0.5000000000000000  0.5000000000000000
 
  0.00000000E+00  0.00000000E+00  0.00000000E+00
  0.00000000E+00  0.00000000E+00  0.00000000E+00
  0.00000000E+00  0.00000000E+00  0.00000000E+00
  0.00000000E+00  0.00000000E+00  0.00000000E+00
  0.00000000E+00  0.00000000E+00  0.00000000E+00
